(set-info :smt-lib-version 2.6)
(set-logic QF_NIA)
(set-info :source |
Generated by: Cristina Borralleras, Daniel Larraz, Albert Oliveras, Enric Rodriguez-Carbonell, Albert Rubio
Generated on: 2017-04-27
Generator: VeryMax
Application: Termination proving
Target solver: barcelogic
|)
(set-info :license "https://creativecommons.org/licenses/by/4.0/")
(set-info :category "industrial")
(set-info :status unsat)
(declare-fun Nl2i^01 () Int)
(declare-fun Nl2i^02 () Int)
(declare-fun lam0n0 () Int)
(declare-fun lam0n1 () Int)
(declare-fun Nl2CT1 () Int)
(declare-fun Nl2CT2 () Int)
(declare-fun lam1n0 () Int)
(declare-fun lam1n1 () Int)
(declare-fun lam2n0 () Int)
(declare-fun lam2n1 () Int)
(declare-fun lam3n0 () Int)
(declare-fun lam3n1 () Int)
(declare-fun lam4n0 () Int)
(declare-fun lam4n1 () Int)
(declare-fun lam5n0 () Int)
(declare-fun lam5n1 () Int)
(declare-fun lam6n0 () Int)
(declare-fun lam6n1 () Int)
(declare-fun lam7n0 () Int)
(declare-fun lam7n1 () Int)
(declare-fun i^0 () Int)
(declare-fun k^0 () Int)
(declare-fun undef28 () Int)
(declare-fun lam11n0 () Int)
(declare-fun lam11n1 () Int)
(declare-fun RFN1_CT () Int)
(declare-fun RFN1_i^0 () Int)
(declare-fun lam15n0 () Int)
(declare-fun lam15n1 () Int)
(declare-fun lam9n0 () Int)
(declare-fun lam9n1 () Int)
(declare-fun lam10n0 () Int)
(declare-fun lam10n1 () Int)
(declare-fun lam13n0 () Int)
(declare-fun lam13n1 () Int)
(declare-fun lam14n0 () Int)
(declare-fun lam14n1 () Int)
(declare-fun lam8n0 () Int)
(declare-fun lam8n1 () Int)
(declare-fun lam12n0 () Int)
(declare-fun lam12n1 () Int)
(assert ( and ( <= ( - 1 ) Nl2i^01 ) ( <= Nl2i^01 1 ) ( <= ( - 1 ) Nl2i^02 ) ( <= Nl2i^02 1 ) ))
(assert ( or ( and ( >= lam0n0 0 ) ( >= lam0n1 0 ) ( > ( + ( * Nl2CT1 lam0n0 ) ( * Nl2CT2 lam0n1 ) ( - 1 ) ) 0 ) ( = ( + ( * Nl2i^01 lam0n0 ) ( * Nl2i^02 lam0n1 ) ) 0 ) ) ( and ( >= lam1n0 0 ) ( >= lam1n1 0 ) ( > ( + ( * Nl2CT1 lam1n0 ) ( * Nl2CT2 lam1n1 ) ( - 1 ( + Nl2CT1 ( * Nl2i^01 1 ) ) ) ) 0 ) ( = ( + ( * Nl2i^01 lam1n0 ) ( * Nl2i^02 lam1n1 ) ( - ( + 0 ( * Nl2i^01 1 ) ) ) ) 0 ) ) ))
(assert ( or ( and ( >= lam0n0 0 ) ( >= lam0n1 0 ) ( > ( + ( * Nl2CT1 lam0n0 ) ( * Nl2CT2 lam0n1 ) ( - 1 ) ) 0 ) ( = ( + ( * Nl2i^01 lam0n0 ) ( * Nl2i^02 lam0n1 ) ) 0 ) ) ( and ( >= lam2n0 0 ) ( >= lam2n1 0 ) ( > ( + ( * Nl2CT1 lam2n0 ) ( * Nl2CT2 lam2n1 ) ( - 1 ( + Nl2CT2 ( * Nl2i^02 1 ) ) ) ) 0 ) ( = ( + ( * Nl2i^01 lam2n0 ) ( * Nl2i^02 lam2n1 ) ( - ( + 0 ( * Nl2i^02 1 ) ) ) ) 0 ) ) ))
(assert ( or ( and ( >= lam3n0 0 ) ( >= lam3n1 0 ) ( > ( + ( * Nl2CT1 lam3n0 ) ( * Nl2CT2 lam3n1 ) ( - 1 ) ) 0 ) ( = ( + ( * Nl2i^01 lam3n0 ) ( * Nl2i^02 lam3n1 ) ) 0 ) ) ( and ( >= lam4n0 0 ) ( >= lam4n1 0 ) ( > ( + ( * Nl2CT1 lam4n0 ) ( * Nl2CT2 lam4n1 ) ( - 1 ( + Nl2CT1 ( * Nl2i^01 1 ) ) ) ) 0 ) ( = ( + ( * Nl2i^01 lam4n0 ) ( * Nl2i^02 lam4n1 ) ( - ( + 0 ( * Nl2i^01 1 ) ) ) ) 0 ) ) ))
(assert ( or ( and ( >= lam3n0 0 ) ( >= lam3n1 0 ) ( > ( + ( * Nl2CT1 lam3n0 ) ( * Nl2CT2 lam3n1 ) ( - 1 ) ) 0 ) ( = ( + ( * Nl2i^01 lam3n0 ) ( * Nl2i^02 lam3n1 ) ) 0 ) ) ( and ( >= lam5n0 0 ) ( >= lam5n1 0 ) ( > ( + ( * Nl2CT1 lam5n0 ) ( * Nl2CT2 lam5n1 ) ( - 1 ( + Nl2CT2 ( * Nl2i^02 1 ) ) ) ) 0 ) ( = ( + ( * Nl2i^01 lam5n0 ) ( * Nl2i^02 lam5n1 ) ( - ( + 0 ( * Nl2i^02 1 ) ) ) ) 0 ) ) ))
(assert ( and ( = i^0 0 ) ( = ( + k^0 ( * ( - 1 ) undef28 ) ) 0 ) ( <= ( + Nl2CT1 ( * ( + 0 Nl2i^01 ) i^0 ) ) 0 ) ( <= ( + Nl2CT2 ( * ( + 0 Nl2i^02 ) i^0 ) ) 0 ) ))
(assert ( or ( and ( and ( and ( >= lam11n0 0 ) ( >= lam11n1 0 ) ( > ( + ( * Nl2CT1 lam11n0 ) ( * Nl2CT2 lam11n1 ) ( - 1 ( - ( + RFN1_CT ( * RFN1_i^0 1 ) ) RFN1_CT ) ) ) 0 ) ( = ( + ( * Nl2i^01 lam11n0 ) ( * Nl2i^02 lam11n1 ) ( - ( - ( + 0 ( * RFN1_i^0 1 ) ) RFN1_i^0 ) ) ) 0 ) ) ( and ( >= lam15n0 0 ) ( >= lam15n1 0 ) ( > ( + ( * Nl2CT1 lam15n0 ) ( * Nl2CT2 lam15n1 ) ( - 1 ( - ( + RFN1_CT ( * RFN1_i^0 1 ) ) RFN1_CT ) ) ) 0 ) ( = ( + ( * Nl2i^01 lam15n0 ) ( * Nl2i^02 lam15n1 ) ( - ( - ( + 0 ( * RFN1_i^0 1 ) ) RFN1_i^0 ) ) ) 0 ) ) ) ( or ( and ( and ( >= lam9n0 0 ) ( >= lam9n1 0 ) ( > ( + ( * Nl2CT1 lam9n0 ) ( * Nl2CT2 lam9n1 ) ( - 1 ( - RFN1_CT ) ) ) 0 ) ( = ( + ( * Nl2i^01 lam9n0 ) ( * Nl2i^02 lam9n1 ) ( - ( - RFN1_i^0 ) ) ) 0 ) ) ( and ( >= lam10n0 0 ) ( >= lam10n1 0 ) ( > ( + ( * Nl2CT1 lam10n0 ) ( * Nl2CT2 lam10n1 ) ( - 1 ( + ( - ( + RFN1_CT ( * RFN1_i^0 1 ) ) RFN1_CT ) 1 ) ) ) 0 ) ( = ( + ( * Nl2i^01 lam10n0 ) ( * Nl2i^02 lam10n1 ) ( - ( - ( + 0 ( * RFN1_i^0 1 ) ) RFN1_i^0 ) ) ) 0 ) ) ) ( and ( and ( >= lam13n0 0 ) ( >= lam13n1 0 ) ( > ( + ( * Nl2CT1 lam13n0 ) ( * Nl2CT2 lam13n1 ) ( - 1 ( - RFN1_CT ) ) ) 0 ) ( = ( + ( * Nl2i^01 lam13n0 ) ( * Nl2i^02 lam13n1 ) ( - ( - RFN1_i^0 ) ) ) 0 ) ) ( and ( >= lam14n0 0 ) ( >= lam14n1 0 ) ( > ( + ( * Nl2CT1 lam14n0 ) ( * Nl2CT2 lam14n1 ) ( - 1 ( + ( - ( + RFN1_CT ( * RFN1_i^0 1 ) ) RFN1_CT ) 1 ) ) ) 0 ) ( = ( + ( * Nl2i^01 lam14n0 ) ( * Nl2i^02 lam14n1 ) ( - ( - ( + 0 ( * RFN1_i^0 1 ) ) RFN1_i^0 ) ) ) 0 ) ) ) ) ) ( or ( and ( >= lam8n0 0 ) ( >= lam8n1 0 ) ( > ( + ( * Nl2CT1 lam8n0 ) ( * Nl2CT2 lam8n1 ) ( - 1 ) ) 0 ) ( = ( + ( * Nl2i^01 lam8n0 ) ( * Nl2i^02 lam8n1 ) ) 0 ) ) ( and ( >= lam12n0 0 ) ( >= lam12n1 0 ) ( > ( + ( * Nl2CT1 lam12n0 ) ( * Nl2CT2 lam12n1 ) ( - 1 ) ) 0 ) ( = ( + ( * Nl2i^01 lam12n0 ) ( * Nl2i^02 lam12n1 ) ) 0 ) ) ) ))
(check-sat)
(exit)
